outputs/case_138.model.txt
reinsurer_credit_rating_level = 2
foreign_broker_deductible_rate = 5
foreign_broker_professional_liability_insurance_amount_usd = 5000000
broker_reinsurance_credit_rating_ok = True
reinsurance_conditions_and_rates_compliant = True
internal_control_segregated = True
foreign_broker_insurance_period_continuous = 1
broker_reinsurance_written_delegation = True
contract_signed_documents_delivered_within_60_days = True
broker_reinsurance_market_info_notification = True
written_delegation_from_original_insurer = True
broker_reinsurance_info_delivery = True
standard_and_poors_rating = 0
credit_rating_level = 0
dual_agency_disclosed_in_contract = True
foreign_broker_approved_by_home_regulator = True
reinsurance_info_delivered_before_contract_effective = True
follow_ethics_and_self_discipline = True
broker_reinsurance_contract_delivery = True
broker_reinsurance_pre_contract_confirmation = True
reinsurance_documents_preserved = True
broker_reinsurance_foreign_broker_qualification = True
reinsurer_confirmation_document_obtained_before_contract_effective = True
reinsurance_condition_compliance = True
broker_internal_control_segregation = True
conflict_of_interest = False
penalty = False
original_insurer_agreed = True
broker_follow_ethics = True
complete_reinsurance_contract_delivered_within_6_months = True
broker_reinsurance_dual_agency_disclosure = True
notify_original_insurer_after_contract_effective = True
broker_reinsurance_document_preservation = True